Total weight: 797.267173840452
Route 1: 0 22 20 68 69 66 89 14 16 19 18 26 23 25 17 15 12 13 9 11 10 8 21 0 
Route 2: 0 24 27 30 29 6 32 33 37 38 39 28 36 34 35 31 50 51 44 40 46 45 42 41 43 47 52 48 0 
Route 3: 0 67 63 62 74 72 61 64 65 49 55 54 53 56 58 60 59 57 86 84 83 82 85 76 71 70 73 80 79 81 78 77 87 96 0 
Route 4: 0 93 5 75 2 1 99 100 97 92 94 95 98 7 3 4 88 91 90 0 
